lattice_vector 3.422925 0.00000 0.00000
lattice_vector 0.00000 2.450855 0.00000
lattice_vector 0.00000 0.00000 4.498175

atom_frac 0.00000 0.00000 0.00000 Cl
atom_frac 0.00000 0.50000 0.50000 Cl
atom_frac 0.50000 0.50000 0.00000 Cl
atom_frac 0.50000 0.00000 0.50000 Cl