lattice_vector 3.684312 0.00000 0.00000
lattice_vector 0.00000 2.6380112 0.00000
lattice_vector 0.00000 0.00000 4.841672

atom_frac 0.00000 0.00000 0.00000 Cl
atom_frac 0.00000 0.50000 0.50000 Cl
atom_frac 0.50000 0.50000 0.00000 Cl
atom_frac 0.50000 0.00000 0.50000 Cl