lattice_vector 3.11175 0.00000 0.00000
lattice_vector 0.00000 2.22805 0.00000
lattice_vector 0.00000 0.00000 4.08925

atom_frac 0.00000 0.00000 0.00000 Cl
atom_frac 0.00000 0.50000 0.50000 Cl
atom_frac 0.50000 0.50000 0.00000 Cl
atom_frac 0.50000 0.00000 0.50000 Cl