lattice_vector 3.709206 0.00000 0.00000
lattice_vector 0.00000 2.6558356 0.00000
lattice_vector 0.00000 0.00000 4.874386

atom_frac 0.00000 0.00000 0.00000 Cl
atom_frac 0.00000 0.50000 0.50000 Cl
atom_frac 0.50000 0.50000 0.00000 Cl
atom_frac 0.50000 0.00000 0.50000 Cl