lattice_vector 5.912325 0.00000 0.00000
lattice_vector 0.00000 4.233295 0.00000
lattice_vector 0.00000 0.00000 7.769575

atom_frac 0.00000 0.00000 0.00000 Cl
atom_frac 0.00000 0.50000 0.50000 Cl
atom_frac 0.50000 0.50000 0.00000 Cl
atom_frac 0.50000 0.00000 0.50000 Cl