lattice_vector 3.671865 0.00000 0.00000
lattice_vector 0.00000 2.629099 0.00000
lattice_vector 0.00000 0.00000 4.825315

atom_frac 0.00000 0.00000 0.00000 Cl
atom_frac 0.00000 0.50000 0.50000 Cl
atom_frac 0.50000 0.50000 0.00000 Cl
atom_frac 0.50000 0.00000 0.50000 Cl