lattice_vector 3.547395 0.00000 0.00000
lattice_vector 0.00000 2.539977 0.00000
lattice_vector 0.00000 0.00000 4.661745

atom_frac 0.00000 0.00000 0.00000 Cl
atom_frac 0.00000 0.50000 0.50000 Cl
atom_frac 0.50000 0.50000 0.00000 Cl
atom_frac 0.50000 0.00000 0.50000 Cl