lattice_vector 4.10751 0.00000 0.00000
lattice_vector 0.00000 2.94103 0.00000
lattice_vector 0.00000 0.00000 5.39781

atom_frac 0.00000 0.00000 0.00000 Cl
atom_frac 0.00000 0.50000 0.50000 Cl
atom_frac 0.50000 0.50000 0.00000 Cl
atom_frac 0.50000 0.00000 0.50000 Cl