lattice_vector         3.00000000        0.00000000        0.00000000
lattice_vector         0.00000000        3.00000000        0.00000000
lattice_vector         0.00000000        0.00000000        3.00000000
atom_frac         0.00000000        0.00000000        0.00000000  Cl
atom_frac         0.00000000        0.50000000        0.50000000  Cl
atom_frac         0.50000000        0.00000000        0.50000000  Cl
atom_frac         0.50000000        0.50000000        0.00000000  Cl