lattice_vector 3.06047 0.00000 0.00000
lattice_vector 0.00000 3.06047 0.00000
lattice_vector 0.00000 0.00000 3.06047

atom_frac 0.00000 0.00000 0.00000 Cl
atom_frac 0.00000 0.50000 0.50000 Cl
atom_frac 0.50000 0.00000 0.50000 Cl
atom_frac 0.50000 0.50000 0.00000 Cl