lattice_vector 5.289975 0.00000 0.00000
lattice_vector 0.00000 3.787685 0.00000
lattice_vector 0.00000 0.00000 6.951725

atom_frac 0.00000 0.00000 0.00000 Cl
atom_frac 0.00000 0.50000 0.50000 Cl
atom_frac 0.50000 0.50000 0.00000 Cl
atom_frac 0.50000 0.00000 0.50000 Cl