lattice_vector 3.85857 0.00000 0.00000
lattice_vector 0.00000 2.76278 0.00000
lattice_vector 0.00000 0.00000 5.07067
atom_frac 0.00000 0.00000 0.00000 Cl
atom_frac 0.00000 0.50000 0.50000 Cl
atom_frac 0.50000 0.50000 0.00000 Cl
atom_frac 0.50000 0.00000 0.50000 Cl