lattice_vector 4.667625 0.00000 0.00000
lattice_vector 0.00000 3.342075 0.00000
lattice_vector 0.00000 0.00000 6.133875

atom_frac 0.00000 0.00000 0.00000 Cl
atom_frac 0.00000 0.50000 0.50000 Cl
atom_frac 0.50000 0.50000 0.00000 Cl
atom_frac 0.50000 0.00000 0.50000 Cl