New structure
1.0
        3.0000000000         0.0000000000         0.0000000000
        0.0000000000         3.0000000000         0.0000000000
        0.0000000000         0.0000000000         3.0000000000
   Cl
    4
Direct
     0.000000000         0.000000000         0.000000000
     0.000000000         0.500000000         0.500000000
     0.500000000         0.000000000         0.500000000
     0.500000000         0.500000000         0.000000000
