New structure
1.0
        2.5000000000         0.0000000000         0.0000000000
        0.0000000000         2.5000000000         0.0000000000
        0.0000000000         0.0000000000         2.5000000000
   Cl
    2
Direct
     0.000000000         0.000000000         0.000000000
     0.500000000         0.500000000         0.500000000
