lattice_vector 3.758994 0.00000 0.00000
lattice_vector 0.00000 2.6914844 0.00000
lattice_vector 0.00000 0.00000 4.939814

atom_frac 0.00000 0.00000 0.00000 Cl
atom_frac 0.00000 0.50000 0.50000 Cl
atom_frac 0.50000 0.50000 0.00000 Cl
atom_frac 0.50000 0.00000 0.50000 Cl