lattice_vector 3.721653 0.00000 0.00000
lattice_vector 0.00000 2.6647478 0.00000
lattice_vector 0.00000 0.00000 4.890743

atom_frac 0.00000 0.00000 0.00000 Cl
atom_frac 0.00000 0.50000 0.50000 Cl
atom_frac 0.50000 0.50000 0.00000 Cl
atom_frac 0.50000 0.00000 0.50000 Cl