# 
# This is the geometry file that corresponds to the current relaxation step.
# If you do not want this file to be written, set the "write_restart_geometry" flag to .false.
#  aims_uuid : BBA10431-9230-48AC-A8C8-9A4C8FDA0EDA                                
# 
lattice_vector      3.15094006      0.00000000     -0.00000000
lattice_vector      0.00000000      3.15094005     -0.00000000
lattice_vector     -0.00000000     -0.00000000      3.15094005
atom_frac      -0.00000001      0.00000001     -0.00000000 Cl
atom_frac      -0.00000001      0.49999999      0.50000000 Cl
atom_frac       0.50000001      0.00000001      0.50000000 Cl
atom_frac       0.50000001      0.49999999     -0.00000000 Cl
# 
# What follows is the current estimated Hessian matrix constructed by the BFGS algorithm.
# This is NOT the true Hessian matrix of the system.
# If you do not want this information here, switch it off using the "hessian_to_restart_geometry" keyword.
# 
trust_radius             0.2000000030
hessian_file
